0 2279
1 2279
2 2190
3 2094
4 2045
5 1931
6 1894
7 1815
8 1805
9 1760
10 1760
11 1760
12 1712
13 1660
14 1660
15 1659
16 1637
17 1607
18 1563
19 1563
20 1560
21 1548
22 1537
23 1537
24 1537
25 1494
26 1469
27 1431
28 1431
29 1380
30 1380
31 1380
32 1380
33 1380
34 1380
35 1380
36 1380
37 1313
38 1313
39 1267
40 1267
41 1267
42 1267
43 1264
44 1264
45 1244
46 1244
47 1244
48 1237
49 1237
50 1237
51 1237
52 1237
53 1237
54 1237
55 1230
56 1230
57 1230
58 1222
59 1222
60 1191
61 1191
62 1191
63 1174
64 1174
65 1162
66 1162
67 1162
68 1162
69 1162
70 1162
71 1162
72 1162
73 1162
74 1162
75 1162
76 1149
77 1149
78 1118
79 1118
80 1118
81 1118
82 1118
83 1118
84 1118
85 1118
86 1118
87 1118
88 1116
89 1113
90 1111
91 1110
92 1102
93 1092
94 1092
95 1092
96 1092
97 1065
98 1065
99 1055
100 1055
101 1031
102 1006
103 1006
104 1006
105 1006
106 1006
107 1006
108 1006
109 1006
110 1006
111 1006
112 1006
113 1006
114 1006
115 985
116 968
117 968
118 968
119 968
120 968
121 968
122 968
123 968
124 968
125 968
126 968
127 968
128 966
129 966
130 966
131 966
132 966
133 966
134 966
135 966
136 966
137 960
138 957
139 957
140 957
141 933
142 933
143 933
144 933
145 933
146 933
147 933
148 933
149 933
150 933
151 933
152 933
153 933
154 933
155 933
156 933
157 929
158 929
159 929
160 929
161 929
162 927
163 924
164 924
165 924
166 916
167 907
168 907
169 901
170 901
171 901
172 901
173 901
174 901
175 901
176 901
177 901
178 901
179 901
180 901
181 901
182 901
183 901
184 901
185 901
186 901
187 897
188 896
189 894
190 894
191 894
192 894
193 894
194 889
195 889
196 889
197 889
198 889
199 889
200 889
201 889
202 889
203 888
204 883
205 882
206 882
207 882
208 882
209 882
210 882
211 880
212 880
213 878
214 878
215 878
216 873
217 873
218 873
219 873
220 873
221 873
222 873
223 873
224 873
225 873
226 872
227 872
228 870
229 866
230 866
231 866
232 866
233 866
234 866
235 866
236 865
237 865
238 865
239 865
240 865
241 865
242 865
243 864
244 864
245 861
246 861
247 861
248 861
249 861
250 861
251 861
252 860
253 860
254 860
255 860
256 860
257 860
258 860
259 860
260 860
261 860
262 860
263 860
264 860
265 860
266 860
267 857
268 857
269 856
270 856
271 856
272 856
273 856
274 856
275 856
276 856
277 856
278 856
279 855
280 855
281 855
282 855
283 855
284 855
285 855
286 855
287 855
288 853
289 853
290 853
291 853
292 853
293 853
294 853
295 853
296 853
297 853
298 853
299 853
300 853
301 853
302 853
303 853
304 853
305 853
306 853
307 853
308 853
309 852
310 852
311 852
312 852
313 852
314 852
315 852
316 852
317 852
318 852
319 852
320 852
321 852
322 852
323 852
324 852
325 852
326 852
327 852
328 852
329 852
330 852
331 852
332 852
333 852
334 852
335 852
336 852
337 852
338 852
339 852
340 852
341 852
342 852
343 852
344 850
345 850
346 850
347 850
348 850
349 850
350 850
351 850
352 850
353 850
354 850
355 850
356 850
357 850
358 850
359 850
360 850
361 850
362 850
363 850
364 850
365 847
366 847
367 847
368 847
369 847
370 847
371 847
372 847
373 847
374 847
375 847
376 847
377 847
378 847
379 847
380 847
381 847
382 847
383 847
384 847
385 847
386 847
387 847
388 847
389 847
390 847
391 847
392 847
393 847
394 847
395 847
396 845
397 845
398 845
399 845
400 845
401 845
402 845
403 845
404 845
405 845
406 845
407 845
408 843
409 843
410 843
411 842
412 842
413 842
414 842
415 842
416 842
417 842
418 842
419 841
420 841
421 840
422 840
423 840
424 840
425 840
426 840
427 840
428 840
429 840
430 840
431 840
432 809
433 809
434 809
435 809
436 809
437 809
438 809
439 809
440 809
441 809
442 809
443 809
444 809
445 809
446 809
447 809
448 809
449 809
450 809
451 809
452 809
453 803
454 803
455 803
456 803
457 803
458 803
459 801
460 801
461 801
462 801
463 801
464 801
465 801
466 801
467 800
468 800
469 800
470 800
471 800
472 800
473 800
474 800
475 800
476 800
477 800
478 800
479 800
480 799
481 799
482 799
483 799
484 799
485 799
486 799
487 799
488 799
489 799
490 799
491 799
492 799
493 799
494 799
495 799
496 799
497 799
498 799
499 799
500 799
501 799
502 799
503 799
504 799
505 799
506 799
507 799
508 799
509 799
510 799
511 799
512 799
513 799
514 799
515 799
516 799
517 799
518 799
519 799
520 795
521 795
522 795
523 795
524 795
525 795
526 795
527 795
528 795
529 795
530 795
531 795
532 795
533 795
534 795
535 795
536 795
537 795
538 795
539 795
540 795
541 795
542 795
543 795
544 795
545 795
546 795
547 795
548 795
549 795
550 795
551 795
552 795
553 795
554 795
555 795
556 795
557 795
558 795
559 795
560 795
561 795
562 795
563 795
564 795
565 795
566 795
567 795
568 795
569 795
570 795
571 795
572 795
573 795
574 795
575 795
576 795
577 795
578 795
579 795
580 795
581 795
582 795
583 795
584 795
585 795
586 795
587 795
588 795
589 795
590 795
591 795
592 795
593 795
594 795
595 795
596 795
597 795
598 795
599 795
600 795
601 795
602 795
603 795
604 795
605 795
606 795
607 795
608 795
609 795
610 795
611 795
612 795
613 795
614 795
615 795
616 795
617 795
618 795
619 795
620 795
621 795
622 795
623 795
624 795
625 795
626 795
627 795
628 795
629 795
630 795
631 795
632 795
633 795
634 795
635 795
636 795
637 795
638 795
639 795
640 795
641 795
642 795
643 795
644 795
645 795
646 795
647 795
648 795
649 795
650 795
651 795
652 795
653 795
654 795
655 795
656 795
657 795
658 795
659 795
660 795
661 795
662 795
663 795
664 795
665 795
666 795
667 795
668 795
669 795
670 795
671 795
672 795
673 795
674 795
675 795
676 795
677 795
678 795
679 795
680 795
681 795
682 795
683 795
684 795
685 795
686 795
687 795
688 795
689 795
690 795
691 795
692 795
693 795
694 795
695 795
696 795
697 795
698 795
699 795
700 795
701 795
702 795
703 795
704 795
705 795
706 795
707 795
708 795
709 795
710 795
711 795
712 795
713 795
714 795
715 795
716 795
717 795
718 795
719 795
720 795
721 795
722 795
723 795
724 795
725 795
726 795
727 795
728 795
729 795
730 795
731 795
732 795
733 795
734 795
735 795
736 795
737 795
738 795
739 795
740 795
741 795
742 795
743 795
744 795
745 795
746 795
747 795
748 795
749 795
750 795
751 795
752 795
753 795
754 795
755 795
756 795
757 795
758 795
759 795
760 795
761 795
762 795
763 795
764 795
765 795
766 795
767 795
768 795
769 795
770 795
771 795
772 795
773 795
774 795
775 795
776 795
777 795
778 795
779 795
780 795
781 795
782 795
783 795
784 795
785 795
786 795
787 795
788 795
789 795
790 795
791 795
792 795
793 795
794 795
795 795
796 795
797 795
798 795
799 795
800 795
801 795
802 795
803 795
804 795
805 795
806 795
807 795
808 795
809 795
810 795
811 795
812 795
813 795
814 795
815 795
816 795
817 795
818 795
819 795
820 795
821 795
822 795
823 795
824 795
825 795
826 795
827 795
828 795
829 795
830 795
831 795
832 795
833 795
834 795
835 795
836 795
837 795
838 795
839 795
840 795
841 795
842 795
843 795
844 795
845 795
846 795
847 795
848 795
849 795
850 795
851 795
852 795
853 795
854 795
855 795
856 795
857 795
858 795
859 795
860 795
861 795
862 795
863 795
864 795
865 795
866 795
867 795
868 795
869 795
870 795
871 795
872 795
873 795
874 795
875 795
876 795
877 795
878 795
879 795
880 795
881 795
882 795
883 795
884 795
885 795
886 795
887 795
888 795
889 795
890 795
891 795
892 795
893 795
894 795
895 795
896 795
897 795
898 795
899 795
900 795
901 795
902 795
903 795
904 795
905 795
906 795
907 795
908 795
909 795
910 795
911 795
912 795
913 795
914 795
915 795
916 795
917 795
918 795
919 795
920 795
921 795
922 795
923 795
924 795
925 795
926 795
927 795
928 795
929 795
930 795
931 795
932 795
933 795
934 795
935 795
936 795
937 795
938 795
939 795
940 795
941 795
942 795
943 795
944 795
945 795
946 795
947 795
948 795
949 795
950 795
951 795
952 795
953 795
954 795
955 795
956 795
957 795
958 795
959 795
960 795
961 795
962 795
963 795
964 795
965 795
966 795
967 795
968 795
969 795
970 795
971 795
972 795
973 795
974 795
975 795
976 795
977 795
978 795
979 795
980 795
981 795
982 795
983 795
984 795
985 795
986 795
987 795
988 795
989 795
990 795
991 795
992 795
993 795
994 795
995 795
996 795
997 795
998 795
999 795
Best: [[21,30,19,9,10,23,16,11,26,6],
       [7,4,3,24,5,12,29,15],
       [27,8,14,18,20,32,22],
       [28,25],
       [13,2,17,31]], fitness: 795
